* Generated by MPModelProtoExporter
*   Name             : subset_selection
*   Format           : Free
*   Constraints      : 292
*   Variables        : 174
*     Binary         : 174
*     Integer        : 0
*     Continuous     : 0
NAME          subset_selection
ROWS
 N  COST
 L  C000
 L  C001
 L  C002
 L  C003
 L  C004
 L  C005
 L  C006
 L  C007
 L  C008
 L  C009
 L  C010
 L  C011
 L  C012
 L  C013
 L  C014
 L  C015
 L  C016
 L  C017
 L  C018
 L  C019
 L  C020
 L  C021
 L  C022
 L  C023
 L  C024
 L  C025
 L  C026
 L  C027
 L  C028
 L  C029
 L  C030
 L  C031
 L  C032
 L  C033
 L  C034
 L  C035
 L  C036
 L  C037
 L  C038
 L  C039
 L  C040
 L  C041
 L  C042
 L  C043
 L  C044
 L  C045
 L  C046
 L  C047
 L  C048
 L  C049
 L  C050
 L  C051
 L  C052
 L  C053
 L  C054
 L  C055
 L  C056
 L  C057
 L  C058
 L  C059
 L  C060
 L  C061
 L  C062
 L  C063
 L  C064
 L  C065
 L  C066
 L  C067
 L  C068
 L  C069
 L  C070
 L  C071
 L  C072
 L  C073
 L  C074
 L  C075
 L  C076
 L  C077
 L  C078
 L  C079
 L  C080
 L  C081
 L  C082
 L  C083
 L  C084
 L  C085
 L  C086
 L  C087
 L  C088
 L  C089
 L  C090
 L  C091
 L  C092
 L  C093
 L  C094
 L  C095
 L  C096
 L  C097
 L  C098
 L  C099
 L  C100
 L  C101
 L  C102
 L  C103
 L  C104
 L  C105
 L  C106
 L  C107
 L  C108
 L  C109
 L  C110
 L  C111
 L  C112
 L  C113
 L  C114
 L  C115
 L  C116
 L  C117
 L  C118
 L  C119
 L  C120
 L  C121
 L  C122
 L  C123
 L  C124
 L  C125
 L  C126
 L  C127
 L  C128
 L  C129
 L  C130
 L  C131
 L  C132
 L  C133
 L  C134
 L  C135
 L  C136
 L  C137
 L  C138
 L  C139
 L  C140
 L  C141
 L  C142
 L  C143
 L  C144
 L  C145
 L  C146
 L  C147
 L  C148
 L  C149
 L  C150
 L  C151
 L  C152
 L  C153
 L  C154
 L  C155
 L  C156
 L  C157
 L  C158
 L  C159
 L  C160
 L  C161
 L  C162
 L  C163
 L  C164
 L  C165
 L  C166
 L  C167
 L  C168
 L  C169
 L  C170
 L  C171
 L  C172
 L  C173
 L  C174
 L  C175
 L  C176
 L  C177
 L  C178
 L  C179
 L  C180
 L  C181
 L  C182
 L  C183
 L  C184
 L  C185
 L  C186
 L  C187
 L  C188
 L  C189
 L  C190
 L  C191
 L  C192
 L  C193
 L  C194
 L  C195
 L  C196
 L  C197
 L  C198
 L  C199
 L  C200
 L  C201
 L  C202
 L  C203
 L  C204
 L  C205
 L  C206
 L  C207
 L  C208
 L  C209
 L  C210
 L  C211
 L  C212
 L  C213
 L  C214
 L  C215
 L  C216
 L  C217
 L  C218
 L  C219
 L  C220
 L  C221
 L  C222
 L  C223
 L  C224
 L  C225
 L  C226
 L  C227
 L  C228
 L  C229
 L  C230
 L  C231
 L  C232
 L  C233
 L  C234
 L  C235
 L  C236
 L  C237
 L  C238
 L  C239
 L  C240
 L  C241
 L  C242
 L  C243
 L  C244
 L  C245
 L  C246
 L  C247
 L  C248
 L  C249
 L  C250
 L  C251
 L  C252
 L  C253
 L  C254
 L  C255
 L  C256
 L  C257
 L  C258
 L  C259
 L  C260
 L  C261
 L  C262
 L  C263
 L  C264
 L  C265
 L  C266
 L  C267
 L  C268
 L  C269
 L  C270
 L  C271
 L  C272
 L  C273
 L  C274
 L  C275
 L  C276
 L  C277
 L  C278
 L  C279
 L  C280
 L  C281
 L  C282
 L  C283
 L  C284
 L  C285
 L  C286
 L  C287
 L  C288
 L  C289
 G  C290
 G  C291
COLUMNS
  INTSTART  'MARKER'                            'INTORG'
    V000    C001        -1  C002        -1
    V000    C003        -1  C004        -1
    V000    C005        -1  C006        -1
    V000    C007        -1  C008        -1
    V000    C009        -1  C010        -1
    V000    C011        -1  C012        -1
    V000    C013        -1  C014        -1
    V000    C015        -1  C016        -1
    V000    C058        -1  C059        -1
    V000    C060        -1
    V001    C058         1  C060         1
    V001    C061         1
    V002    C059         1  C060         1
    V002    C061         1
    V003    COST         1  C001         1
    V003    C017        -1  C062        -1
    V003    C063        -1  C064        -1
    V004    C062         1  C064         1
    V004    C065         1  C290         3
    V005    C063         1  C064         1
    V005    C065         1  C291         1
    V006    COST         2  C017         1
    V006    C018        -1  C066        -1
    V006    C067        -1  C068        -1
    V007    C066         1  C068         1
    V007    C069         1  C290         5
    V008    C067         1  C068         1
    V008    C069         1  C291         2
    V009    COST         1  C018         1
    V009    C019        -1  C020        -1
    V009    C070        -1  C071        -1
    V009    C072        -1
    V010    C070         1  C072         1
    V010    C073         1  C290         3
    V011    C071         1  C072         1
    V011    C073         1  C291         2
    V012    COST         3  C019         1
    V012    C021        -1  C074        -1
    V012    C075        -1  C076        -1
    V013    C074         1  C076         1
    V013    C077         1  C290         8
    V014    C075         1  C076         1
    V014    C077         1  C291         4
    V015    COST         2  C021         1
    V015    C022        -1  C078        -1
    V015    C079        -1  C080        -1
    V016    C078         1  C080         1
    V016    C081         1  C290         8
    V017    C079         1  C080         1
    V017    C081         1
    V018    COST         4  C022         1
    V018    C082        -1  C083        -1
    V018    C084        -1
    V019    C082         1  C084         1
    V019    C085         1  C290        16
    V020    C083         1  C084         1
    V020    C085         1
    V021    COST         4  C020         1
    V021    C086        -1  C087        -1
    V021    C088        -1
    V022    C086         1  C088         1
    V022    C089         1  C290        12
    V023    C087         1  C088         1
    V023    C089         1
    V024    COST         1  C002         1
    V024    C023        -1  C024        -1
    V024    C090        -1  C091        -1
    V024    C092        -1
    V025    C090         1  C092         1
    V025    C093         1  C290         3
    V026    C091         1  C092         1
    V026    C093         1
    V027    COST         3  C023         1
    V027    C025        -1  C094        -1
    V027    C095        -1  C096        -1
    V028    C094         1  C096         1
    V028    C097         1  C290         8
    V029    C095         1  C096         1
    V029    C097         1
    V030    COST         5  C025         1
    V030    C098        -1  C099        -1
    V030    C100        -1
    V031    C098         1  C100         1
    V031    C101         1  C290        12
    V032    C099         1  C100         1
    V032    C101         1
    V033    COST         4  C024         1
    V033    C102        -1  C103        -1
    V033    C104        -1
    V034    C102         1  C104         1
    V034    C105         1  C290         8
    V035    C103         1  C104         1
    V035    C105         1
    V036    COST         2  C003         1
    V036    C026        -1  C106        -1
    V036    C107        -1  C108        -1
    V037    C106         1  C108         1
    V037    C109         1  C290         3
    V038    C107         1  C108         1
    V038    C109         1
    V039    COST         2  C026         1
    V039    C027        -1  C110        -1
    V039    C111        -1  C112        -1
    V040    C110         1  C112         1
    V040    C113         1  C290         5
    V041    C111         1  C112         1
    V041    C113         1
    V042    COST         3  C027         1
    V042    C028        -1  C114        -1
    V042    C115        -1  C116        -1
    V043    C114         1  C116         1
    V043    C117         1  C290         8
    V044    C115         1  C116         1
    V044    C117         1
    V045    COST         3  C028         1
    V045    C029        -1  C118        -1
    V045    C119        -1  C120        -1
    V046    C118         1  C120         1
    V046    C121         1  C290         8
    V047    C119         1  C120         1
    V047    C121         1
    V048    COST         4  C029         1
    V048    C122        -1  C123        -1
    V048    C124        -1
    V049    C122         1  C124         1
    V049    C125         1  C290        16
    V050    C123         1  C124         1
    V050    C125         1
    V051    COST         1  C004         1
    V051    C030        -1  C126        -1
    V051    C127        -1  C128        -1
    V052    C126         1  C128         1
    V052    C129         1  C290         3
    V053    C127         1  C128         1
    V053    C129         1
    V054    COST         3  C030         1
    V054    C031        -1  C130        -1
    V054    C131        -1  C132        -1
    V055    C130         1  C132         1
    V055    C133         1  C290         5
    V056    C131         1  C132         1
    V056    C133         1
    V057    COST         2  C031         1
    V057    C032        -1  C134        -1
    V057    C135        -1  C136        -1
    V058    C134         1  C136         1
    V058    C137         1  C290         5
    V059    C135         1  C136         1
    V059    C137         1
    V060    COST         2  C032         1
    V060    C033        -1  C138        -1
    V060    C139        -1  C140        -1
    V061    C138         1  C140         1
    V061    C141         1  C290         8
    V062    C139         1  C140         1
    V062    C141         1
    V063    COST         3  C033         1
    V063    C142        -1  C143        -1
    V063    C144        -1
    V064    C142         1  C144         1
    V064    C145         1  C290        16
    V065    C143         1  C144         1
    V065    C145         1
    V066    COST         1  C005         1
    V066    C034        -1  C146        -1
    V066    C147        -1  C148        -1
    V067    C146         1  C148         1
    V067    C149         1  C290         3
    V068    C147         1  C148         1
    V068    C149         1
    V069    COST         3  C034         1
    V069    C035        -1  C150        -1
    V069    C151        -1  C152        -1
    V070    C150         1  C152         1
    V070    C153         1  C290         5
    V071    C151         1  C152         1
    V071    C153         1
    V072    COST         2  C035         1
    V072    C036        -1  C154        -1
    V072    C155        -1  C156        -1
    V073    C154         1  C156         1
    V073    C157         1  C290         5
    V074    C155         1  C156         1
    V074    C157         1
    V075    COST         2  C036         1
    V075    C037        -1  C158        -1
    V075    C159        -1  C160        -1
    V076    C158         1  C160         1
    V076    C161         1  C290         8
    V077    C159         1  C160         1
    V077    C161         1
    V078    COST         3  C037         1
    V078    C162        -1  C163        -1
    V078    C164        -1
    V079    C162         1  C164         1
    V079    C165         1  C290        16
    V080    C163         1  C164         1
    V080    C165         1
    V081    COST         2  C006         1
    V081    C038        -1  C039        -1
    V081    C166        -1  C167        -1
    V081    C168        -1
    V082    C166         1  C168         1
    V082    C169         1  C290         3
    V083    C167         1  C168         1
    V083    C169         1
    V084    COST         2  C038         1
    V084    C170        -1  C171        -1
    V084    C172        -1
    V085    C170         1  C172         1
    V085    C173         1  C290         5
    V086    C171         1  C172         1
    V086    C173         1
    V087    COST         4  C039         1
    V087    C174        -1  C175        -1
    V087    C176        -1
    V088    C174         1  C176         1
    V088    C177         1  C290         8
    V089    C175         1  C176         1
    V089    C177         1
    V090    COST         2  C007         1
    V090    C040        -1  C178        -1
    V090    C179        -1  C180        -1
    V091    C178         1  C180         1
    V091    C181         1  C290         3
    V092    C179         1  C180         1
    V092    C181         1
    V093    COST         2  C040         1
    V093    C041        -1  C182        -1
    V093    C183        -1  C184        -1
    V094    C182         1  C184         1
    V094    C185         1  C290         5
    V095    C183         1  C184         1
    V095    C185         1
    V096    COST         4  C041         1
    V096    C042        -1  C186        -1
    V096    C187        -1  C188        -1
    V097    C186         1  C188         1
    V097    C189         1  C290         8
    V098    C187         1  C188         1
    V098    C189         1
    V099    COST         5  C042         1
    V099    C190        -1  C191        -1
    V099    C192        -1
    V100    C190         1  C192         1
    V100    C193         1  C290        16
    V101    C191         1  C192         1
    V101    C193         1
    V102    COST         2  C008         1
    V102    C043        -1  C194        -1
    V102    C195        -1  C196        -1
    V103    C194         1  C196         1
    V103    C197         1  C290         3
    V104    C195         1  C196         1
    V104    C197         1  C291         1
    V105    COST         3  C043         1
    V105    C044        -1  C198        -1
    V105    C199        -1  C200        -1
    V106    C198         1  C200         1
    V106    C201         1  C290         5
    V107    C199         1  C200         1
    V107    C201         1  C291         2
    V108    COST         2  C044         1
    V108    C045        -1  C202        -1
    V108    C203        -1  C204        -1
    V109    C202         1  C204         1
    V109    C205         1  C290         8
    V110    C203         1  C204         1
    V110    C205         1
    V111    COST         5  C045         1
    V111    C206        -1  C207        -1
    V111    C208        -1
    V112    C206         1  C208         1
    V112    C209         1  C290        12
    V113    C207         1  C208         1
    V113    C209         1
    V114    COST         2  C009         1
    V114    C046        -1  C210        -1
    V114    C211        -1  C212        -1
    V115    C210         1  C212         1
    V115    C213         1  C290         3
    V116    C211         1  C212         1
    V116    C213         1
    V117    COST         3  C046         1
    V117    C047        -1  C214        -1
    V117    C215        -1  C216        -1
    V118    C214         1  C216         1
    V118    C217         1  C290         5
    V119    C215         1  C216         1
    V119    C217         1
    V120    COST         3  C047         1
    V120    C048        -1  C218        -1
    V120    C219        -1  C220        -1
    V121    C218         1  C220         1
    V121    C221         1  C290         8
    V122    C219         1  C220         1
    V122    C221         1
    V123    COST         5  C048         1
    V123    C222        -1  C223        -1
    V123    C224        -1
    V124    C222         1  C224         1
    V124    C225         1  C290        16
    V125    C223         1  C224         1
    V125    C225         1
    V126    COST         1  C010         1
    V126    C049        -1  C226        -1
    V126    C227        -1  C228        -1
    V127    C226         1  C228         1
    V127    C229         1  C290         3
    V128    C227         1  C228         1
    V128    C229         1
    V129    COST         1  C049         1
    V129    C050        -1  C230        -1
    V129    C231        -1  C232        -1
    V130    C230         1  C232         1
    V130    C233         1  C290         3
    V131    C231         1  C232         1
    V131    C233         1  C291         1
    V132    COST         2  C050         1
    V132    C234        -1  C235        -1
    V132    C236        -1
    V133    C234         1  C236         1
    V133    C237         1  C290         5
    V134    C235         1  C236         1
    V134    C237         1  C291         2
    V135    COST         1  C011         1
    V135    C051        -1  C238        -1
    V135    C239        -1  C240        -1
    V136    C238         1  C240         1
    V136    C241         1  C290         3
    V137    C239         1  C240         1
    V137    C241         1
    V138    COST         1  C051         1
    V138    C052        -1  C242        -1
    V138    C243        -1  C244        -1
    V139    C242         1  C244         1
    V139    C245         1  C290         3
    V140    C243         1  C244         1
    V140    C245         1
    V141    COST         2  C052         1
    V141    C246        -1  C247        -1
    V141    C248        -1
    V142    C246         1  C248         1
    V142    C249         1  C290         5
    V143    C247         1  C248         1
    V143    C249         1  C291         2
    V144    COST         1  C012         1
    V144    C053        -1  C250        -1
    V144    C251        -1  C252        -1
    V145    C250         1  C252         1
    V145    C253         1  C290         3
    V146    C251         1  C252         1
    V146    C253         1  C291         1
    V147    COST         1  C053         1
    V147    C054        -1  C254        -1
    V147    C255        -1  C256        -1
    V148    C254         1  C256         1
    V148    C257         1  C290         3
    V149    C255         1  C256         1
    V149    C257         1
    V150    COST         2  C054         1
    V150    C258        -1  C259        -1
    V150    C260        -1
    V151    C258         1  C260         1
    V151    C261         1  C290         5
    V152    C259         1  C260         1
    V152    C261         1
    V153    COST         2  C013         1
    V153    C055        -1  C262        -1
    V153    C263        -1  C264        -1
    V154    C262         1  C264         1
    V154    C265         1  C290         5
    V155    C263         1  C264         1
    V155    C265         1
    V156    COST         3  C055         1
    V156    C056        -1  C266        -1
    V156    C267        -1  C268        -1
    V157    C266         1  C268         1
    V157    C269         1  C290         5
    V158    C267         1  C268         1
    V158    C269         1
    V159    COST         5  C056         1
    V159    C270        -1  C271        -1
    V159    C272        -1
    V160    C270         1  C272         1
    V160    C273         1  C290        12
    V161    C271         1  C272         1
    V161    C273         1
    V162    COST         1  C014         1
    V162    C057        -1  C274        -1
    V162    C275        -1  C276        -1
    V163    C274         1  C276         1
    V163    C277         1  C290         3
    V164    C275         1  C276         1
    V164    C277         1
    V165    COST         1  C057         1
    V165    C278        -1  C279        -1
    V165    C280        -1
    V166    C278         1  C280         1
    V166    C281         1  C290         3
    V167    C279         1  C280         1
    V167    C281         1
    V168    COST         2  C015         1
    V168    C282        -1  C283        -1
    V168    C284        -1
    V169    C282         1  C284         1
    V169    C285         1  C290         5
    V170    C283         1  C284         1
    V170    C285         1
    V171    COST         5  C016         1
    V171    C286        -1  C287        -1
    V171    C288        -1
    V172    C286         1  C288         1
    V172    C289         1  C290        12
    V173    C287         1  C288         1
    V173    C289         1
  INTEND    'MARKER'                            'INTEND'
RHS
    RHS     C000         0  C001         0
    RHS     C002         0  C003         0
    RHS     C004         0  C005         0
    RHS     C006         0  C007         0
    RHS     C008         0  C009         0
    RHS     C010         0  C011         0
    RHS     C012         0  C013         0
    RHS     C014         0  C015         0
    RHS     C016         0  C017         0
    RHS     C018         0  C019         0
    RHS     C020         0  C021         0
    RHS     C022         0  C023         0
    RHS     C024         0  C025         0
    RHS     C026         0  C027         0
    RHS     C028         0  C029         0
    RHS     C030         0  C031         0
    RHS     C032         0  C033         0
    RHS     C034         0  C035         0
    RHS     C036         0  C037         0
    RHS     C038         0  C039         0
    RHS     C040         0  C041         0
    RHS     C042         0  C043         0
    RHS     C044         0  C045         0
    RHS     C046         0  C047         0
    RHS     C048         0  C049         0
    RHS     C050         0  C051         0
    RHS     C052         0  C053         0
    RHS     C054         0  C055         0
    RHS     C056         0  C057         0
    RHS     C058         0  C059         0
    RHS     C060         0  C061         1
    RHS     C062         0  C063         0
    RHS     C064         0  C065         1
    RHS     C066         0  C067         0
    RHS     C068         0  C069         1
    RHS     C070         0  C071         0
    RHS     C072         0  C073         1
    RHS     C074         0  C075         0
    RHS     C076         0  C077         1
    RHS     C078         0  C079         0
    RHS     C080         0  C081         1
    RHS     C082         0  C083         0
    RHS     C084         0  C085         1
    RHS     C086         0  C087         0
    RHS     C088         0  C089         1
    RHS     C090         0  C091         0
    RHS     C092         0  C093         1
    RHS     C094         0  C095         0
    RHS     C096         0  C097         1
    RHS     C098         0  C099         0
    RHS     C100         0  C101         1
    RHS     C102         0  C103         0
    RHS     C104         0  C105         1
    RHS     C106         0  C107         0
    RHS     C108         0  C109         1
    RHS     C110         0  C111         0
    RHS     C112         0  C113         1
    RHS     C114         0  C115         0
    RHS     C116         0  C117         1
    RHS     C118         0  C119         0
    RHS     C120         0  C121         1
    RHS     C122         0  C123         0
    RHS     C124         0  C125         1
    RHS     C126         0  C127         0
    RHS     C128         0  C129         1
    RHS     C130         0  C131         0
    RHS     C132         0  C133         1
    RHS     C134         0  C135         0
    RHS     C136         0  C137         1
    RHS     C138         0  C139         0
    RHS     C140         0  C141         1
    RHS     C142         0  C143         0
    RHS     C144         0  C145         1
    RHS     C146         0  C147         0
    RHS     C148         0  C149         1
    RHS     C150         0  C151         0
    RHS     C152         0  C153         1
    RHS     C154         0  C155         0
    RHS     C156         0  C157         1
    RHS     C158         0  C159         0
    RHS     C160         0  C161         1
    RHS     C162         0  C163         0
    RHS     C164         0  C165         1
    RHS     C166         0  C167         0
    RHS     C168         0  C169         1
    RHS     C170         0  C171         0
    RHS     C172         0  C173         1
    RHS     C174         0  C175         0
    RHS     C176         0  C177         1
    RHS     C178         0  C179         0
    RHS     C180         0  C181         1
    RHS     C182         0  C183         0
    RHS     C184         0  C185         1
    RHS     C186         0  C187         0
    RHS     C188         0  C189         1
    RHS     C190         0  C191         0
    RHS     C192         0  C193         1
    RHS     C194         0  C195         0
    RHS     C196         0  C197         1
    RHS     C198         0  C199         0
    RHS     C200         0  C201         1
    RHS     C202         0  C203         0
    RHS     C204         0  C205         1
    RHS     C206         0  C207         0
    RHS     C208         0  C209         1
    RHS     C210         0  C211         0
    RHS     C212         0  C213         1
    RHS     C214         0  C215         0
    RHS     C216         0  C217         1
    RHS     C218         0  C219         0
    RHS     C220         0  C221         1
    RHS     C222         0  C223         0
    RHS     C224         0  C225         1
    RHS     C226         0  C227         0
    RHS     C228         0  C229         1
    RHS     C230         0  C231         0
    RHS     C232         0  C233         1
    RHS     C234         0  C235         0
    RHS     C236         0  C237         1
    RHS     C238         0  C239         0
    RHS     C240         0  C241         1
    RHS     C242         0  C243         0
    RHS     C244         0  C245         1
    RHS     C246         0  C247         0
    RHS     C248         0  C249         1
    RHS     C250         0  C251         0
    RHS     C252         0  C253         1
    RHS     C254         0  C255         0
    RHS     C256         0  C257         1
    RHS     C258         0  C259         0
    RHS     C260         0  C261         1
    RHS     C262         0  C263         0
    RHS     C264         0  C265         1
    RHS     C266         0  C267         0
    RHS     C268         0  C269         1
    RHS     C270         0  C271         0
    RHS     C272         0  C273         1
    RHS     C274         0  C275         0
    RHS     C276         0  C277         1
    RHS     C278         0  C279         0
    RHS     C280         0  C281         1
    RHS     C282         0  C283         0
    RHS     C284         0  C285         1
    RHS     C286         0  C287         0
    RHS     C288         0  C289         1
    RHS     C290      9999  C291      9999
BOUNDS
 BV BOUND   V000
 BV BOUND   V001
 BV BOUND   V002
 BV BOUND   V003
 BV BOUND   V004
 BV BOUND   V005
 BV BOUND   V006
 BV BOUND   V007
 BV BOUND   V008
 BV BOUND   V009
 BV BOUND   V010
 BV BOUND   V011
 BV BOUND   V012
 BV BOUND   V013
 BV BOUND   V014
 BV BOUND   V015
 BV BOUND   V016
 BV BOUND   V017
 BV BOUND   V018
 BV BOUND   V019
 BV BOUND   V020
 BV BOUND   V021
 BV BOUND   V022
 BV BOUND   V023
 BV BOUND   V024
 BV BOUND   V025
 BV BOUND   V026
 BV BOUND   V027
 BV BOUND   V028
 BV BOUND   V029
 BV BOUND   V030
 BV BOUND   V031
 BV BOUND   V032
 BV BOUND   V033
 BV BOUND   V034
 BV BOUND   V035
 BV BOUND   V036
 BV BOUND   V037
 BV BOUND   V038
 BV BOUND   V039
 BV BOUND   V040
 BV BOUND   V041
 BV BOUND   V042
 BV BOUND   V043
 BV BOUND   V044
 BV BOUND   V045
 BV BOUND   V046
 BV BOUND   V047
 BV BOUND   V048
 BV BOUND   V049
 BV BOUND   V050
 BV BOUND   V051
 BV BOUND   V052
 BV BOUND   V053
 BV BOUND   V054
 BV BOUND   V055
 BV BOUND   V056
 BV BOUND   V057
 BV BOUND   V058
 BV BOUND   V059
 BV BOUND   V060
 BV BOUND   V061
 BV BOUND   V062
 BV BOUND   V063
 BV BOUND   V064
 BV BOUND   V065
 BV BOUND   V066
 BV BOUND   V067
 BV BOUND   V068
 BV BOUND   V069
 BV BOUND   V070
 BV BOUND   V071
 BV BOUND   V072
 BV BOUND   V073
 BV BOUND   V074
 BV BOUND   V075
 BV BOUND   V076
 BV BOUND   V077
 BV BOUND   V078
 BV BOUND   V079
 BV BOUND   V080
 BV BOUND   V081
 BV BOUND   V082
 BV BOUND   V083
 BV BOUND   V084
 BV BOUND   V085
 BV BOUND   V086
 BV BOUND   V087
 BV BOUND   V088
 BV BOUND   V089
 BV BOUND   V090
 BV BOUND   V091
 BV BOUND   V092
 BV BOUND   V093
 BV BOUND   V094
 BV BOUND   V095
 BV BOUND   V096
 BV BOUND   V097
 BV BOUND   V098
 BV BOUND   V099
 BV BOUND   V100
 BV BOUND   V101
 BV BOUND   V102
 BV BOUND   V103
 BV BOUND   V104
 BV BOUND   V105
 BV BOUND   V106
 BV BOUND   V107
 BV BOUND   V108
 BV BOUND   V109
 BV BOUND   V110
 BV BOUND   V111
 BV BOUND   V112
 BV BOUND   V113
 BV BOUND   V114
 BV BOUND   V115
 BV BOUND   V116
 BV BOUND   V117
 BV BOUND   V118
 BV BOUND   V119
 BV BOUND   V120
 BV BOUND   V121
 BV BOUND   V122
 BV BOUND   V123
 BV BOUND   V124
 BV BOUND   V125
 BV BOUND   V126
 BV BOUND   V127
 BV BOUND   V128
 BV BOUND   V129
 BV BOUND   V130
 BV BOUND   V131
 BV BOUND   V132
 BV BOUND   V133
 BV BOUND   V134
 BV BOUND   V135
 BV BOUND   V136
 BV BOUND   V137
 BV BOUND   V138
 BV BOUND   V139
 BV BOUND   V140
 BV BOUND   V141
 BV BOUND   V142
 BV BOUND   V143
 BV BOUND   V144
 BV BOUND   V145
 BV BOUND   V146
 BV BOUND   V147
 BV BOUND   V148
 BV BOUND   V149
 BV BOUND   V150
 BV BOUND   V151
 BV BOUND   V152
 BV BOUND   V153
 BV BOUND   V154
 BV BOUND   V155
 BV BOUND   V156
 BV BOUND   V157
 BV BOUND   V158
 BV BOUND   V159
 BV BOUND   V160
 BV BOUND   V161
 BV BOUND   V162
 BV BOUND   V163
 BV BOUND   V164
 BV BOUND   V165
 BV BOUND   V166
 BV BOUND   V167
 BV BOUND   V168
 BV BOUND   V169
 BV BOUND   V170
 BV BOUND   V171
 BV BOUND   V172
 BV BOUND   V173
ENDATA
